NAME          SIMPKC2
ROWS
 N  R0
 E  R1
 E  R2
COLUMNS
    X1        R0                  1.
    X1        R1                  1.
    X1        R2                  1.
    X2        R0                  1.
    X2        R1                  0.
    X2        R2                  2.
    X3        R0                  1.
    X3        R1                  1.
    X3        R2                  -1.
RHS
    RHS       R1                  2.
    RHS       R2                  0.
ENDATA
